10J3M/DAT/10J3MULA-20.dat
10 3
3.7579 14.1218
47.3652 2243.4622
25.1487 632.4571
1.966 3.8652
39.2928 1543.9241
14.0424 197.189
1.8942 3.588
20.3787 415.2914
26.8518 721.0192
16.2087 262.722
2012.5467