10J3M/SOL/10J3MULA-20.sol
solution status: optimal solution found
objective value:                     65.6354666666667
x#1#1                                               1 	(obj:0)
x#2#1                               0.467546871031135 	(obj:0)
x#2#3                               0.532453128968865 	(obj:0)
x#3#2                               0.653324683218701 	(obj:0)
x#3#3                               0.346675316781299 	(obj:0)
x#4#1                                               1 	(obj:0)
x#5#1                               0.431106966014015 	(obj:0)
x#5#2                               0.568893033985985 	(obj:0)
x#6#1                                               1 	(obj:0)
x#7#1                                               1 	(obj:0)
x#8#3                                               1 	(obj:0)
x#9#2                                               1 	(obj:0)
x#10#1                              0.301696978579854 	(obj:0)
x#10#3                              0.698303021420146 	(obj:0)
z                                    65.6354666666667 	(obj:1)
